num_stars = 4;
dim = 17;
sectors = [|
1, 1, 2, 2, 2, 2, 2, 2, 3, 3, 3, 3, 3, 3, 3, 3, 3|
1, 2, 2, 4, 4, 4, 2, 3, 3, 3, 3, 3, 3, 3, 3, 3, 5|
1, 4, 4, 4, 1, 4, 2, 2, 3, 3, 3, 3, 6, 3, 3, 5, 5|
1, 4, 1, 4, 1, 1, 3, 3, 3, 3, 6, 6, 6, 6, 6, 5, 5|
1, 1, 1, 1, 1, 1, 7, 3, 7, 3, 6, 8, 6, 5, 5, 5, 5|
1, 1, 1, 1, 1, 1, 7, 7, 7, 7, 7, 8, 8, 5, 5, 5, 5|
1, 1, 1, 1, 1, 1, 9, 9, 9, 9, 7, 8, 8, 8, 8, 5, 5|
10, 1, 1, 1, 9, 9, 9, 9, 11, 7, 7, 7, 8, 8, 8, 5, 5|
10, 10, 1, 1, 10, 10, 11, 9, 11, 7, 12, 7, 8, 8, 8, 5, 5|
10, 10, 10, 10, 10, 10, 11, 11, 11, 11, 12, 8, 8, 8, 8, 8, 13|
10, 10, 10, 10, 10, 11, 11, 11, 11, 12, 12, 12, 8, 12, 12, 12, 13|
14, 10, 11, 11, 11, 11, 11, 11, 11, 11, 11, 12, 12, 12, 12, 12, 13|
14, 14, 14, 14, 14, 11, 11, 11, 11, 11, 15, 12, 12, 12, 12, 12, 13|
14, 14, 14, 14, 14, 15, 15, 15, 15, 15, 15, 15, 12, 12, 12, 12, 13|
14, 14, 14, 14, 15, 15, 15, 15, 15, 15, 15, 16, 12, 16, 12, 13, 13|
14, 14, 17, 17, 17, 17, 17, 15, 15, 15, 15, 16, 12, 16, 16, 16, 13|
14, 14, 14, 14, 14, 14, 17, 17, 17, 15, 16, 16, 16, 16, 13, 13, 13|
];